12 72 29 16 22 61 69 71 86 16 54 53 64 96 79 68 98 87 40 74 22 23 47 55 21 90 68 14 42 41 40 63 23 75  4 31 87 25 47 70  1 49 59 11 93 38  5 43 82 33 26 89 86 10 16 72 96 47  9 56  8  69 87 84 62 52 82 66 67 33  3 53 95 42 59 77 38 12  1 66 24 17 58 71 88 63 60 86  8  8 44 99 80 76 94 75 63 57 76 34
